%%% static parameters %%%
timespan = 1;
Clients_N = [1000];
Demand_W = [15];
Lt0 = [4];
Lt1 = [4];
SS_ = [0.85];
DS_D = [20];
K = [200];
MA = [500];
HC = [0.05];
%%% dynamic parameters %%%
lost_ratio_sales_ret_th = 0.005619922447632937;
lost_ratio_sales_ret_w = 100;
lost_ratio_sales_dis_th = 0.004151582979039468;
lost_ratio_sales_dis_w = 19;
lost_ratio_sales_fac_th = 0.0024557495388885056;
lost_ratio_sales_fac_w = 82;
stock_customer_MA_mean_relative_th = 0.018493346277936196;
stock_customer_MA_mean_relative_w = 63;
stock_distributor_MA_mean_relative_th = 0.1422734246532139;
stock_distributor_MA_mean_relative_w = 16;
stock_retailer_MA_mean_relative_th = 0.9906576780181635;
stock_retailer_MA_mean_relative_w = 58;
stock_factory_MA_mean_relative_th = 0.01147902536522527;
stock_factory_MA_mean_relative_w = 41;
